DIMACS2
80 79 287 318 56 182 51 241 190 87 32 162 134 92 163 40 25 17 298 77 240 289 297 156 3 170 207 100 277 47 197 233 130 235 248 65 61 76 159 222 36 223 10 274 28 117 43 71 125 147 205 282 62 22 60 276 293 171 68 272 110 69 107 78 291 192 280 137 53 124 203 229 266 24 191 247 34 168 253 106 73
p edge 320 320
e 0 52 1.0
e 1 11 1.0
e 2 147 39.0
e 3 129 37.0
e 4 263 1.0
e 5 179 5.0
e 6 173 1.0
e 7 26 8.0
e 8 269 1.0
e 9 59 1.0
e 10 5 6.0
e 11 150 1.0
e 12 130 6.0
e 13 118 1.0
e 14 173 1.0
e 15 5 1.0
e 16 198 3.0
e 17 268 6.0
e 18 46 1.0
e 19 314 8.0
e 20 197 14.0
e 21 64 1.0
e 22 128 29.0
e 23 102 1.0
e 24 73 11.0
e 25 132 12.0
e 26 292 1.0
e 27 38 4.0
e 28 138 13.0
e 29 62 42.0
e 30 262 1.0
e 31 185 1.0
e 32 182 2.0
e 33 121 1.0
e 34 153 12.0
e 35 97 1.0
e 36 186 20.0
e 37 0 1.0
e 38 7 8.0
e 39 276 39.0
e 40 216 31.0
e 41 137 1.0
e 42 134 27.0
e 43 200 7.0
e 44 15 6.0
e 45 198 1.0
e 46 224 1.0
e 47 171 14.0
e 48 23 1.0
e 49 58 1.0
e 50 126 1.0
e 51 282 43.0
e 52 163 30.0
e 53 130 42.0
e 54 90 1.0
e 55 19 1.0
e 56 60 49.0
e 57 192 27.0
e 58 6 2.0
e 59 15 1.0
e 60 160 17.0
e 61 110 15.0
e 62 116 30.0
e 63 248 38.0
e 64 218 3.0
e 65 97 2.0
e 66 290 2.0
e 67 217 1.0
e 68 254 8.0
e 69 115 49.0
e 70 271 1.0
e 71 178 2.0
e 72 91 2.0
e 73 240 27.0
e 74 61 47.0
e 75 96 1.0
e 76 113 39.0
e 77 62 40.0
e 78 59 8.0
e 79 16 36.0
e 80 256 1.0
e 81 100 14.0
e 82 288 1.0
e 83 51 28.0
e 84 229 36.0
e 85 104 1.0
e 86 209 1.0
e 87 267 47.0
e 88 24 7.0
e 89 74 2.0
e 90 114 1.0
e 91 2 2.0
e 92 176 48.0
e 93 107 10.0
e 94 2 5.0
e 95 186 1.0
e 96 45 1.0
e 97 306 1.0
e 98 19 1.0
e 99 296 1.0
e 100 207 21.0
e 101 128 1.0
e 102 317 1.0
e 103 314 6.0
e 104 213 1.0
e 105 81 1.0
e 106 117 27.0
e 107 304 23.0
e 108 85 1.0
e 109 6 1.0
e 110 63 28.0
e 111 253 9.0
e 112 303 2.0
e 113 58 1.0
e 114 131 1.0
e 115 208 1.0
e 116 316 2.0
e 117 272 7.0
e 118 309 1.0
e 119 267 1.0
e 120 188 1.0
e 121 153 6.0
e 122 119 1.0
e 123 239 1.0
e 124 7 3.0
e 125 141 28.0
e 126 233 35.0
e 127 89 5.0
e 128 241 9.0
e 129 121 4.0
e 130 242 2.0
e 131 274 44.0
e 132 318 10.0
e 133 281 1.0
e 134 33 28.0
e 135 294 1.0
e 136 76 43.0
e 137 316 35.0
e 138 62 39.0
e 139 236 1.0
e 140 243 1.0
e 141 147 3.0
e 142 168 3.0
e 143 255 1.0
e 144 65 29.0
e 145 219 2.0
e 146 109 3.0
e 147 127 4.0
e 148 95 1.0
e 149 248 34.0
e 150 290 1.0
e 151 157 1.0
e 152 279 1.0
e 153 30 5.0
e 154 194 1.0
e 155 209 1.0
e 156 45 4.0
e 157 6 1.0
e 158 240 37.0
e 159 44 10.0
e 160 150 1.0
e 161 242 3.0
e 162 125 24.0
e 163 134 44.0
e 164 315 1.0
e 165 269 1.0
e 166 196 1.0
e 167 308 1.0
e 168 218 44.0
e 169 108 1.0
e 170 158 15.0
e 171 39 48.0
e 172 317 1.0
e 173 75 2.0
e 174 77 39.0
e 175 129 5.0
e 176 123 1.0
e 177 73 1.0
e 178 200 1.0
e 179 149 1.0
e 180 25 32.0
e 181 113 3.0
e 182 75 23.0
e 183 256 1.0
e 184 282 1.0
e 185 206 1.0
e 186 222 36.0
e 187 197 19.0
e 188 225 1.0
e 189 248 34.0
e 190 78 8.0
e 191 202 27.0
e 192 76 3.0
e 193 7 11.0
e 194 208 1.0
e 195 241 14.0
e 196 253 30.0
e 197 296 47.0
e 198 5 1.0
e 199 137 15.0
e 200 138 2.0
e 201 10 9.0
e 202 301 1.0
e 203 295 29.0
e 204 213 1.0
e 205 297 19.0
e 206 283 1.0
e 207 214 8.0
e 208 224 2.0
e 209 125 42.0
e 210 41 1.0
e 211 30 1.0
e 212 149 1.0
e 213 66 1.0
e 214 35 1.0
e 215 259 1.0
e 216 198 2.0
e 217 144 1.0
e 218 185 4.0
e 219 53 45.0
e 220 43 21.0
e 221 226 1.0
e 222 40 4.0
e 223 105 31.0
e 224 214 3.0
e 225 155 1.0
e 226 91 1.0
e 227 118 1.0
e 228 69 5.0
e 229 146 39.0
e 230 276 45.0
e 231 184 1.0
e 232 134 3.0
e 233 125 33.0
e 234 25 6.0
e 235 174 46.0
e 236 246 1.0
e 237 145 1.0
e 238 173 2.0
e 239 275 2.0
e 240 150 14.0
e 241 73 46.0
e 242 94 1.0
e 243 84 6.0
e 244 91 1.0
e 245 247 1.0
e 246 255 1.0
e 247 62 19.0
e 248 145 10.0
e 249 69 43.0
e 250 60 21.0
e 251 158 1.0
e 252 271 1.0
e 253 77 4.0
e 254 128 2.0
e 255 157 1.0
e 256 46 1.0
e 257 134 43.0
e 258 229 22.0
e 259 311 1.0
e 260 219 2.0
e 261 313 1.0
e 262 21 1.0
e 263 26 3.0
e 264 124 35.0
e 265 84 2.0
e 266 149 36.0
e 267 138 1.0
e 268 243 2.0
e 269 24 24.0
e 270 16 1.0
e 271 287 4.0
e 272 128 8.0
e 273 60 39.0
e 274 40 11.0
e 275 188 1.0
e 276 28 25.0
e 277 283 8.0
e 278 294 1.0
e 279 262 1.0
e 280 297 11.0
e 281 132 1.0
e 282 41 34.0
e 283 47 27.0
e 284 302 6.0
e 285 142 10.0
e 286 128 1.0
e 287 126 1.0
e 288 54 1.0
e 289 105 21.0
e 290 247 17.0
e 291 69 18.0
e 292 42 2.0
e 293 35 29.0
e 294 238 1.0
e 295 239 5.0
e 296 76 43.0
e 297 210 23.0
e 298 92 43.0
e 299 153 2.0
e 300 255 1.0
e 301 81 3.0
e 302 146 2.0
e 303 211 2.0
e 304 191 12.0
e 305 284 1.0
e 306 90 1.0
e 307 135 1.0
e 308 112 1.0
e 309 294 1.0
e 310 300 1.0
e 311 166 1.0
e 312 182 38.0
e 313 27 1.0
e 314 17 28.0
e 315 275 1.0
e 316 212 3.0
e 317 41 1.0
e 318 31 23.0
e 319 311 1.0
